
Gurobi 10.0.3 (linux64, gurobi_cl) logging started Thu Nov  2 11:36:09 2023

Set parameter Username
Set parameter TimeLimit to value 3600
Set parameter LogFile to value "RCPSP_732.log"
Set parameter Threads to value 32
Academic license - for non-commercial use only - expires 2024-10-30
Using license file /home/jrivera6/gurobi-licenses/v1003/compute-0-34/gurobi.lic

Gurobi Optimizer version 10.0.3 build v10.0.3rc0 (linux64)
Copyright (c) 2023, Gurobi Optimization, LLC

Read MPS format model from file RCPSP_732.mps
Reading time = 0.02 seconds
RCPSP_732: 19643 rows, 7750 columns, 68318 nonzeros

CPU model: Intel(R) Xeon(R) Gold 6130 CPU @ 2.10GHz, instruction set [SSE2|AVX|AVX2|AVX512]
Thread count: 32 physical cores, 32 logical processors, using up to 32 threads

Optimize a model with 19643 rows, 7750 columns and 68318 nonzeros
Model fingerprint: 0x8a3e1ed3
Variable types: 62 continuous, 7688 integer (7688 binary)
Coefficient statistics:
  Matrix range     [1e+00, 3e+02]
  Objective range  [1e+00, 1e+00]
  Bounds range     [1e+00, 1e+00]
  RHS range        [1e+00, 3e+02]
Presolve removed 8188 rows and 2998 columns
Presolve time: 3.56s
Presolved: 11455 rows, 4752 columns, 41343 nonzeros
Variable types: 61 continuous, 4691 integer (4691 binary)

Root relaxation: objective 6.300000e+01, 1619 iterations, 0.04 seconds (0.01 work units)

    Nodes    |    Current Node    |     Objective Bounds      |     Work
 Expl Unexpl |  Obj  Depth IntInf | Incumbent    BestBd   Gap | It/Node Time

     0     0   63.00000    0   32          -   63.00000      -     -    4s
     0     0   63.00000    0  130          -   63.00000      -     -    6s
     0     0   63.00000    0  154          -   63.00000      -     -    6s
     0     0   63.00000    0   25          -   63.00000      -     -    7s
     0     0   63.00000    0   27          -   63.00000      -     -    8s
     0     0   63.00000    0   28          -   63.00000      -     -    9s
     0     0   63.00000    0   40          -   63.00000      -     -    9s
     0     0   63.00000    0   44          -   63.00000      -     -   10s
     0     0   63.00000    0  120          -   63.00000      -     -   10s
     0     0   63.00000    0   18          -   63.00000      -     -   12s
     0     0   63.00000    0   20          -   63.00000      -     -   12s
     0     0   63.00000    0   36          -   63.00000      -     -   13s
     0     0   63.00000    0   53          -   63.00000      -     -   13s
     0     0   63.00000    0   35          -   63.00000      -     -   14s
H    0     0                     295.0000000   63.00000  78.6%     -   14s
     0     0   63.00000    0   28  295.00000   63.00000  78.6%     -   14s
     0     2   63.00000    0   28  295.00000   63.00000  78.6%     -   19s
     1     4   63.00000    1   28  295.00000   63.00000  78.6%   366   21s
    15    28   63.00000    4  170  295.00000   63.00000  78.6%   178   26s
    29    47   63.00000    5  171  295.00000   63.00000  78.6%   190   63s
H   32    47                     278.0000000   63.00000  77.3%   200   63s
H   47    47                     210.0000000   63.00000  70.0%   176   63s
    57    72   63.00000    6  153  210.00000   63.00000  70.0%   201   65s
H   89   100                     170.0000000   63.00000  62.9%   197  107s
H   90   100                     166.0000000   63.00000  62.0%   196  107s
H   92   100                     164.0000000   63.00000  61.6%   193  107s
H   96   100                     152.0000000   63.00000  58.6%   190  107s
   153   156   63.00000    9   98  152.00000   63.00000  58.6%   139  111s
   185   195   63.00000   10   63  152.00000   63.00000  58.6%   127  117s
   275   286   63.00000   12   66  152.00000   63.00000  58.6%   189  121s
   331   388   63.00000   12   62  152.00000   63.00000  58.6%   160  156s
   458   641   63.00000   14  193  152.00000   63.00000  58.6%   125  165s
   771   997   63.00706   17  214  152.00000   63.00000  58.6%   107  173s
H 1242  1026                     138.0000000   63.00000  54.3%  82.8  282s
H 1242  1026                     134.0000000   63.00000  53.0%  82.8  282s
H 1243  1026                     125.0000000   63.00000  49.6%  82.8  282s
H 1245  1026                      77.0000000   63.00000  18.2%  83.1  282s
  1277  1615   64.00000   34  193   77.00000   63.00000  18.2%  85.6  291s
  2017  2157   64.00000   65  158   77.00000   63.00000  18.2%  70.6  300s
H 2037  2157                      76.0000000   63.00000  17.1%  70.2  300s
H 2082  2157                      73.0000000   63.00000  13.7%  69.5  300s
H 2495  2157                      71.0000000   63.00000  11.3%  64.7  301s
  2748  2292     cutoff   83        71.00000   63.00000  11.3%  61.8  309s
H 3676  1504                      69.0000000   63.00000  8.70%  57.5  312s
  3677  1471   63.00000   16   28   69.00000   63.00000  8.70%  57.5  351s
  3682  1474   63.01266   20   22   69.00000   63.00000  8.70%  57.4  356s
  3687  1478   63.33333   32   99   69.00000   63.00000  8.70%  57.4  360s
H 3687  1403                      69.0000000   63.00000  8.70%  57.4  361s
  3690  1405   66.00000   38   20   69.00000   63.00000  8.70%  57.3  365s
H 3691  1335                      66.0000000   63.00000  4.55%  57.3  367s
H 3692  1269                      65.0000000   63.00000  3.08%  57.3  368s
  3695  1271   63.00000   18    6   65.00000   63.00000  3.08%  57.2  370s
H 3696  1208                      64.0000000   63.00000  1.56%  57.2  371s
  3698  1210   63.00000   25   28   64.00000   63.00000  1.56%  63.1  383s
  3700  1211   64.00000   19   63   64.00000   63.00000  1.56%  63.1  397s
  3701  1212   64.00000   28   14   64.00000   63.00000  1.56%  63.1  408s
  3702  1213   64.00000   40   45   64.00000   63.00000  1.56%  63.0  412s
  3704  1214   63.00000   21  273   64.00000   63.00000  1.56%  63.0  415s
  3708  1217   63.00000   31  155   64.00000   63.00000  1.56%  62.9  420s
  3712  1222   63.00000   24   34   64.00000   63.00000  1.56%  67.2  428s
  3714  1226   63.00000   25   34   64.00000   63.00000  1.56%  67.2  430s
  3726  1241   63.00000   27   34   64.00000   63.00000  1.56%  67.4  435s
H 3760  1188                      63.9999990   63.00000  1.56%  67.4  439s
  3768  1208   63.00000   29   31   64.00000   63.00000  1.56%  67.7  443s
  3800  1219   63.00000   30   35   64.00000   63.00000  1.56%  67.7  493s
H 3801  1161                      63.0000000   63.00000  0.00%  67.6  493s

Cutting planes:
  Learned: 4
  Gomory: 13
  Cover: 185
  Implied bound: 26
  Projected implied bound: 4
  Clique: 316
  MIR: 56
  StrongCG: 18
  Flow cover: 234
  GUB cover: 7
  Zero half: 13
  RLT: 55
  Relax-and-lift: 54

Explored 3832 nodes (278132 simplex iterations) in 493.92 seconds (26.13 work units)
Thread count was 32 (of 32 available processors)

Solution count 10: 63 64 64 ... 76

Optimal solution found (tolerance 1.00e-04)
Best objective 6.300000000000e+01, best bound 6.300000000000e+01, gap 0.0000%

Wrote result file 'RCPSP_732.sol'

